; PUSH cw_4 DUP1 PUSH 0x01 ISZERO ISZERO => PUSH cw_4 PUSH cw_4 PUSH 0x01
(set-option :produce-proofs true)
; 
(set-info :status unknown)
(declare-fun storage_t ((_ BitVec 256) Int (_ BitVec 256)) (_ BitVec 256))
(declare-fun w_4 () (_ BitVec 256))
(declare-fun storage_s ((_ BitVec 256) Int (_ BitVec 256)) (_ BitVec 256))
(declare-fun exc_halt_t (Int) Bool)
(declare-fun exc_halt_s (Int) Bool)
(declare-fun sc_t (Int) (_ BitVec 6))
(declare-fun stack_t ((_ BitVec 256) Int (_ BitVec 6)) (_ BitVec 256))
(declare-fun stack_s ((_ BitVec 256) Int (_ BitVec 6)) (_ BitVec 256))
(declare-fun sc_s (Int) (_ BitVec 6))
(declare-fun used_gas_t ((_ BitVec 256) Int) Int)
(declare-fun used_gas_s ((_ BitVec 256) Int) Int)
(assert
 (let (($x6920 (forall ((w (_ BitVec 256)) )(let ((?x7663 (storage_t w_4 3 w)))
 (let ((?x764 (storage_s w_4 5 w)))
 (= ?x764 ?x7663))))
 ))
 (let (($x2670 (exc_halt_t 3)))
 (let (($x11317 (exc_halt_s 5)))
 (let (($x3448 (= $x11317 $x2670)))
 (let (($x199 (forall ((n (_ BitVec 6)) )(let ((?x10926 (sc_t 3)))
 (let (($x7865 (bvsle ?x10926 n)))
 (let ((?x11699 (stack_t w_4 3 n)))
 (let ((?x2926 (stack_s w_4 5 n)))
 (let (($x855 (= ?x2926 ?x11699)))
 (or $x855 $x7865)))))))
 ))
 (let ((?x10926 (sc_t 3)))
 (let ((?x4319 (sc_s 5)))
 (let (($x7819 (= ?x4319 ?x10926)))
 (let ((?x3424 (used_gas_t w_4 0)))
 (let ((?x102 (used_gas_s w_4 0)))
 (let (($x6843 (= ?x102 ?x3424)))
 (let (($x10421 (forall ((w (_ BitVec 256)) )(let ((?x6907 (storage_t w_4 0 w)))
 (let ((?x11813 (storage_s w_4 0 w)))
 (= ?x11813 ?x6907))))
 ))
 (let (($x56 (exc_halt_t 0)))
 (let (($x57 (exc_halt_s 0)))
 (let (($x58 (= $x57 $x56)))
 (let (($x11131 (forall ((n (_ BitVec 6)) )(let ((?x5849 (stack_t w_4 0 n)))
 (let ((?x769 (stack_s w_4 0 n)))
 (let (($x10006 (= ?x769 ?x5849)))
 (let ((?x63 (sc_t 0)))
 (let (($x4230 (bvsle ?x63 n)))
 (or $x4230 $x10006)))))))
 ))
 (let ((?x63 (sc_t 0)))
 (let ((?x72 (sc_s 0)))
 (let (($x73 (= ?x72 ?x63)))
 (let (($x2163 (exc_halt_t 2)))
 (let (($x5873 (or $x2163 (not (= ((_ extract 6 6) (bvadd (_ bv1 7) (concat (_ bv0 1) (sc_t 2)))) (_ bv0 1))))))
 (let (($x1149 (= $x2670 $x5873)))
 (let (($x8761 (forall ((w (_ BitVec 256)) )(let ((?x5294 (storage_t w_4 2 w)))
 (let ((?x7663 (storage_t w_4 3 w)))
 (= ?x7663 ?x5294))))
 ))
 (let (($x6366 (forall ((n (_ BitVec 6)) )(let ((?x2714 (sc_t 2)))
 (let (($x9222 (bvsle ?x2714 n)))
 (or $x9222 (= (stack_t w_4 3 n) (stack_t w_4 2 n))))))
 ))
 (let (($x8329 (= ?x10926 (bvadd (_ bv1 6) (sc_t 2)))))
 (let (($x8101 (not (= ((_ extract 6 6) (bvadd (_ bv1 7) (concat (_ bv0 1) (sc_t 1)))) (_ bv0 1)))))
 (let (($x8377 (exc_halt_t 1)))
 (let (($x8626 (= $x2163 (or $x8377 $x8101))))
 (let (($x6273 (forall ((w (_ BitVec 256)) )(let ((?x4992 (storage_t w_4 1 w)))
 (let ((?x5294 (storage_t w_4 2 w)))
 (= ?x5294 ?x4992))))
 ))
 (let (($x10787 (forall ((n (_ BitVec 6)) )(let ((?x7154 (sc_t 1)))
 (let (($x8298 (bvsle ?x7154 n)))
 (or (= (stack_t w_4 2 n) (stack_t w_4 1 n)) $x8298))))
 ))
 (let ((?x2714 (sc_t 2)))
 (let (($x12000 (= ?x2714 (bvadd (_ bv1 6) (sc_t 1)))))
 (let (($x3390 (= $x8377 (or $x56 (not (= ((_ extract 6 6) (bvadd (_ bv1 7) (concat (_ bv0 1) ?x63))) (_ bv0 1)))))))
 (let (($x8760 (forall ((w (_ BitVec 256)) )(let ((?x6907 (storage_t w_4 0 w)))
 (let ((?x4992 (storage_t w_4 1 w)))
 (= ?x4992 ?x6907))))
 ))
 (let (($x6025 (forall ((n (_ BitVec 6)) )(let ((?x63 (sc_t 0)))
 (let (($x4230 (bvsle ?x63 n)))
 (or (= (stack_t w_4 1 n) (stack_t w_4 0 n)) $x4230))))
 ))
 (let ((?x7154 (sc_t 1)))
 (let (($x3285 (= ?x7154 (bvadd (_ bv1 6) ?x63))))
 (let (($x940 (= $x11317 (or (exc_halt_s 4) (not (bvsle (_ bv0 6) (bvadd (_ bv63 6) (sc_s 4))))))))
 (let (($x8750 (forall ((w (_ BitVec 256)) )(let ((?x5091 (storage_s w_4 4 w)))
 (let ((?x764 (storage_s w_4 5 w)))
 (= ?x764 ?x5091))))
 ))
 (let (($x8825 (forall ((n (_ BitVec 6)) )(let ((?x4305 (sc_s 4)))
 (let ((?x4739 (bvadd (_ bv63 6) ?x4305)))
 (let (($x5213 (bvsle ?x4739 n)))
 (or (= (stack_s w_4 5 n) (stack_s w_4 4 n)) $x5213)))))
 ))
 (let ((?x4305 (sc_s 4)))
 (let (($x780 (= ?x4319 ?x4305)))
 (let (($x8808 (= (stack_s w_4 5 (bvadd (_ bv63 6) ?x4319)) (ite (= (stack_s w_4 4 (bvadd (_ bv63 6) ?x4305)) (_ bv0 256)) (_ bv1 256) (_ bv0 256)))))
 (let (($x7172 (exc_halt_s 4)))
 (let (($x1104 (= $x7172 (or (exc_halt_s 3) (not (bvsle (_ bv0 6) (bvadd (_ bv63 6) (sc_s 3))))))))
 (let (($x1787 (forall ((w (_ BitVec 256)) )(let ((?x813 (storage_s w_4 3 w)))
 (let ((?x5091 (storage_s w_4 4 w)))
 (= ?x5091 ?x813))))
 ))
 (let (($x1406 (forall ((n (_ BitVec 6)) )(let ((?x275 (sc_s 3)))
 (let ((?x10876 (bvadd (_ bv63 6) ?x275)))
 (let (($x6531 (bvsle ?x10876 n)))
 (or $x6531 (= (stack_s w_4 4 n) (stack_s w_4 3 n)))))))
 ))
 (let ((?x275 (sc_s 3)))
 (let (($x10065 (= ?x4305 ?x275)))
 (let ((?x4739 (bvadd (_ bv63 6) ?x4305)))
 (let ((?x4483 (stack_s w_4 4 ?x4739)))
 (let (($x9050 (= ?x4483 (ite (= (stack_s w_4 3 (bvadd (_ bv63 6) ?x275)) (_ bv0 256)) (_ bv1 256) (_ bv0 256)))))
 (let (($x11964 (not (= ((_ extract 6 6) (bvadd (_ bv1 7) (concat (_ bv0 1) (sc_s 2)))) (_ bv0 1)))))
 (let (($x247 (exc_halt_s 2)))
 (let (($x292 (exc_halt_s 3)))
 (let (($x8221 (= $x292 (or $x247 $x11964))))
 (let (($x8350 (forall ((w (_ BitVec 256)) )(let ((?x2314 (storage_s w_4 2 w)))
 (let ((?x813 (storage_s w_4 3 w)))
 (= ?x813 ?x2314))))
 ))
 (let (($x8716 (forall ((n (_ BitVec 6)) )(let ((?x218 (sc_s 2)))
 (let (($x7998 (bvsle ?x218 n)))
 (or $x7998 (= (stack_s w_4 3 n) (stack_s w_4 2 n))))))
 ))
 (let (($x10753 (= ?x275 (bvadd (_ bv1 6) (sc_s 2)))))
 (let (($x7994 (not (= ((_ extract 6 6) (bvadd (_ bv1 7) (concat (_ bv0 1) (sc_s 1)))) (_ bv0 1)))))
 (let (($x483 (not (bvsle (_ bv0 6) (bvadd (_ bv63 6) (sc_s 1))))))
 (let (($x189 (exc_halt_s 1)))
 (let (($x619 (= $x247 (or $x189 $x483 $x7994))))
 (let (($x553 (forall ((w (_ BitVec 256)) )(let ((?x11407 (storage_s w_4 1 w)))
 (let ((?x2314 (storage_s w_4 2 w)))
 (= ?x2314 ?x11407))))
 ))
 (let (($x5978 (forall ((n (_ BitVec 6)) )(let ((?x154 (sc_s 1)))
 (let ((?x4263 (bvadd (_ bv63 6) ?x154)))
 (let (($x6291 (bvsle ?x4263 n)))
 (or (= (stack_s w_4 2 n) (stack_s w_4 1 n)) $x6291)))))
 ))
 (let ((?x218 (sc_s 2)))
 (let (($x8356 (= ?x218 (bvadd (_ bv1 6) (sc_s 1)))))
 (let ((?x154 (sc_s 1)))
 (let ((?x4263 (bvadd (_ bv63 6) ?x154)))
 (let ((?x7812 (stack_s w_4 1 ?x4263)))
 (let (($x1815 (= $x189 (or $x57 (not (= ((_ extract 6 6) (bvadd (_ bv1 7) (concat (_ bv0 1) ?x72))) (_ bv0 1)))))))
 (let (($x11598 (forall ((w (_ BitVec 256)) )(let ((?x11813 (storage_s w_4 0 w)))
 (let ((?x11407 (storage_s w_4 1 w)))
 (= ?x11407 ?x11813))))
 ))
 (let (($x1490 (forall ((n (_ BitVec 6)) )(let ((?x72 (sc_s 0)))
 (let (($x4037 (bvsle ?x72 n)))
 (or $x4037 (= (stack_s w_4 1 n) (stack_s w_4 0 n))))))
 ))
 (let (($x1117 (= ?x154 (bvadd (_ bv1 6) ?x72))))
 (let (($x3977 (forall ((w (_ BitVec 256)) )(let ((?x11813 (storage_s w_4 0 w)))
 (= ?x11813 (_ bv0 256))))
 ))
 (let (($x825 (= ?x102 0)))
 (let (($x5536 (not $x57)))
 (let (($x1074 (= ?x72 (_ bv0 6))))
 (and $x1074 $x5536 $x825 $x3977 (= (stack_s w_4 1 ?x72) w_4) (= (used_gas_s w_4 1) (+ 3 ?x102)) $x1117 $x1490 $x11598 $x1815 (= (stack_s w_4 2 (bvadd (_ bv63 6) ?x218)) ?x7812) (= (stack_s w_4 2 ?x4263) ?x7812) (= (used_gas_s w_4 2) (+ 3 (used_gas_s w_4 1))) $x8356 $x5978 $x553 $x619 (= (stack_s w_4 3 ?x218) (_ bv1 256)) (= (used_gas_s w_4 3) (+ 3 (used_gas_s w_4 2))) $x10753 $x8716 $x8350 $x8221 $x9050 (= (used_gas_s w_4 4) (+ 3 (used_gas_s w_4 3))) $x10065 $x1406 $x1787 $x1104 $x8808 (= (used_gas_s w_4 5) (+ 3 (used_gas_s w_4 4))) $x780 $x8825 $x8750 $x940 (= (stack_t w_4 1 ?x63) w_4) (= (used_gas_t w_4 1) (+ 3 ?x3424)) $x3285 $x6025 $x8760 $x3390 (= (stack_t w_4 2 ?x7154) w_4) (= (used_gas_t w_4 2) (+ 3 (used_gas_t w_4 1))) $x12000 $x10787 $x6273 $x8626 (= (stack_t w_4 3 ?x2714) (_ bv1 256)) (= (used_gas_t w_4 3) (+ 3 (used_gas_t w_4 2))) $x8329 $x6366 $x8761 $x1149 $x73 $x11131 $x58 $x10421 $x6843 (not (and $x7819 $x199 $x3448 $x6920))))))))))))))))))))))))))))))))))))))))))))))))))))))))))))))))))))))))))))))))))
(check-sat)
(get-proof)
